0 3224
1 3202
2 3120
4 3091
5 3075
7 3059
9 3043
12 3028
36 2994
48 2986
49 2955
50 2945
57 2935
59 2934
65 2921
66 2914
70 2888
77 2875
87 2874
90 2855
94 2846
113 2825
116 2818
123 2807
128 2798
130 2794
133 2792
194 2791
206 2785
211 2778
217 2774
25096 2768
25390 2757
25481 2751
26323 2744
33329 2742
59867 2740
59868 2735
1181525 2729
